(declare-const x String)
(declare-const y String)
(assert (str.in.re x (re.* (str.to.re "s2"))))
(assert (str.in.re y (re.+ (re.* (str.to.re "'$y$#")))))
(assert (= (str.to.int x) 2))
(assert (= (str.to.int y) 16))
(check-sat)
(get-model)
